c preprocessed version of AhrensSzekeresGeneralizedQuadrangleGraph_3, 27 vertices, 135 edges
p td 27 135
0 1
0 4
0 8
0 9
0 11
0 12
0 13
0 20
0 23
0 24
1 3
1 6
1 11
1 14
1 16
1 17
1 19
1 21
1 25
2 3
2 5
2 6
2 8
2 9
2 11
2 13
2 14
2 16
3 4
3 10
3 15
4 5
4 6
4 7
4 9
4 10
4 14
4 19
5 11
5 17
5 19
6 8
6 15
6 17
6 18
7 8
7 11
7 14
7 15
7 16
7 17
8 10
8 19
9 15
9 16
9 17
9 18
10 11
10 13
10 16
10 17
10 18
11 15
11 18
12 3
12 5
12 8
12 14
12 15
12 16
12 17
12 18
12 26
13 14
13 15
13 17
13 19
14 18
15 19
16 19
18 19
20 3
20 5
20 6
20 7
20 13
20 16
20 18
20 21
20 22
21 5
21 8
21 9
21 10
21 14
21 15
21 24
21 26
22 3
22 8
22 9
22 11
22 14
22 17
22 19
22 23
22 26
23 5
23 6
23 10
23 14
23 15
23 16
23 24
23 25
24 2
24 3
24 7
24 17
24 18
24 19
24 26
25 3
25 5
25 7
25 8
25 9
25 13
25 18
25 26
26 4
26 6
26 11
26 13
26 16
